NAME : airline78.-287374869.tour
COMMENT : Length = -287374869
COMMENT : Found by LKH [Keld Helsgaun] Tue Jul 13 16:06:56 2021
TYPE : TOUR
DIMENSION : 29
TOUR_SECTION
1
7
20
12
14
15
27
29
26
23
22
24
28
25
16
21
5
3
13
18
19
17
6
2
8
4
11
9
10
-1
EOF
